c turning on binary mode checking
c parsing input formula with 259840 variables and 1039914 clauses
c finished parsing, read 23743504 bytes from proof file
c detected empty clause; start verification via backward checking
c 14590 of 1039914 clauses in core                            
c 19531 of 616969 lemmas in core using 284436 resolution steps
c 0 RAT lemmas in core; 1758 redundant literals in core lemmas
s VERIFIED
c verification time: 2.966 seconds
